\ENCODING=ISO-8859-1
\Problem name: SUFL_5_5_0

Minimize
 obj: 30 x1 + 30 x2 + 30 x3 + 30 x4 + 30 x5
Subject To
 c_g_1: x1 + x2 + x3 + x4 + x5 >= 1
Bounds
 0 <= x1 <= 1
 0 <= x2 <= 1
 0 <= x3 <= 1
 0 <= x4 <= 1
 0 <= x5 <= 1
Binaries
 x1  x2  x3  x4  x5 
End
